\ENCODING=ISO-8859-1
\Problem name: IloCplex

Minimize
 OBJ: 10 X1#0 + 7 X2#1 + 16 X3#2 + 6 X4#3 + _eta_1#4 + _eta_2#5 + _eta_3#6
      + _eta_4#7 + _eta_5#8 + _eta_6#9 + _eta_7#10 + _eta_8#11 + _eta_9#12
      + _eta_10#13 + _eta_11#14 + _eta_12#15 + _eta_13#16 + _eta_14#17
      + _eta_15#18 + _eta_16#19 + _eta_17#20 + _eta_18#21 + _eta_19#22
      + _eta_20#23 + _eta_21#24 + _eta_22#25 + _eta_23#26 + _eta_24#27
      + _eta_25#28 + _eta_26#29 + _eta_27#30 + _eta_28#31 + _eta_29#32
      + _eta_30#33 + _eta_31#34 + _eta_32#35 + _eta_33#36 + _eta_34#37
      + _eta_35#38 + _eta_36#39 + _eta_37#40 + _eta_38#41 + _eta_39#42
      + _eta_40#43 + _eta_41#44 + _eta_42#45 + _eta_43#46 + _eta_44#47
      + _eta_45#48 + _eta_46#49 + _eta_47#50 + _eta_48#51 + _eta_49#52
      + _eta_50#53 + _eta_51#54 + _eta_52#55 + _eta_53#56 + _eta_54#57
      + _eta_55#58 + _eta_56#59 + _eta_57#60 + _eta_58#61 + _eta_59#62
      + _eta_60#63 + _eta_61#64 + _eta_62#65 + _eta_63#66 + _eta_64#67
      + _eta_65#68 + _eta_66#69 + _eta_67#70 + _eta_68#71 + _eta_69#72
      + _eta_70#73 + _eta_71#74 + _eta_72#75 + _eta_73#76 + _eta_74#77
      + _eta_75#78 + _eta_76#79 + _eta_77#80 + _eta_78#81 + _eta_79#82
      + _eta_80#83 + _eta_81#84 + _eta_82#85 + _eta_83#86 + _eta_84#87
      + _eta_85#88 + _eta_86#89 + _eta_87#90 + _eta_88#91 + _eta_89#92
      + _eta_90#93 + _eta_91#94 + _eta_92#95 + _eta_93#96 + _eta_94#97
      + _eta_95#98 + _eta_96#99 + _eta_97#100 + _eta_98#101 + _eta_99#102
      + _eta_100#103 + _eta_101#104 + _eta_102#105 + _eta_103#106
      + _eta_104#107 + _eta_105#108 + _eta_106#109 + _eta_107#110
      + _eta_108#111 + _eta_109#112 + _eta_110#113 + _eta_111#114
      + _eta_112#115 + _eta_113#116 + _eta_114#117 + _eta_115#118
      + _eta_116#119 + _eta_117#120 + _eta_118#121 + _eta_119#122
      + _eta_120#123 + _eta_121#124 + _eta_122#125 + _eta_123#126
      + _eta_124#127 + _eta_125#128 + _eta_126#129 + _eta_127#130
      + _eta_128#131 + _eta_129#132 + _eta_130#133 + _eta_131#134
      + _eta_132#135 + _eta_133#136 + _eta_134#137 + _eta_135#138
      + _eta_136#139 + _eta_137#140 + _eta_138#141 + _eta_139#142
      + _eta_140#143 + _eta_141#144 + _eta_142#145 + _eta_143#146
      + _eta_144#147 + _eta_145#148 + _eta_146#149 + _eta_147#150
      + _eta_148#151 + _eta_149#152 + _eta_150#153 + _eta_151#154
      + _eta_152#155 + _eta_153#156 + _eta_154#157 + _eta_155#158
      + _eta_156#159 + _eta_157#160 + _eta_158#161 + _eta_159#162
      + _eta_160#163 + _eta_161#164 + _eta_162#165 + _eta_163#166
      + _eta_164#167 + _eta_165#168 + _eta_166#169 + _eta_167#170
      + _eta_168#171 + _eta_169#172 + _eta_170#173 + _eta_171#174
      + _eta_172#175 + _eta_173#176 + _eta_174#177 + _eta_175#178
      + _eta_176#179 + _eta_177#180 + _eta_178#181 + _eta_179#182
      + _eta_180#183 + _eta_181#184 + _eta_182#185 + _eta_183#186
      + _eta_184#187 + _eta_185#188 + _eta_186#189 + _eta_187#190
      + _eta_188#191 + _eta_189#192 + _eta_190#193 + _eta_191#194
      + _eta_192#195 + _eta_193#196 + _eta_194#197 + _eta_195#198
      + _eta_196#199 + _eta_197#200 + _eta_198#201 + _eta_199#202
      + _eta_200#203 + _eta_201#204 + _eta_202#205 + _eta_203#206
      + _eta_204#207 + _eta_205#208 + _eta_206#209 + _eta_207#210
      + _eta_208#211 + _eta_209#212 + _eta_210#213 + _eta_211#214
      + _eta_212#215 + _eta_213#216 + _eta_214#217 + _eta_215#218
      + _eta_216#219 + _eta_217#220 + _eta_218#221 + _eta_219#222
      + _eta_220#223 + _eta_221#224 + _eta_222#225 + _eta_223#226
      + _eta_224#227 + _eta_225#228 + _eta_226#229 + _eta_227#230
      + _eta_228#231 + _eta_229#232 + _eta_230#233 + _eta_231#234
      + _eta_232#235 + _eta_233#236 + _eta_234#237 + _eta_235#238
      + _eta_236#239 + _eta_237#240 + _eta_238#241 + _eta_239#242
      + _eta_240#243 + _eta_241#244 + _eta_242#245 + _eta_243#246
      + _eta_244#247 + _eta_245#248 + _eta_246#249 + _eta_247#250
      + _eta_248#251 + _eta_249#252 + _eta_250#253 + _eta_251#254
      + _eta_252#255 + _eta_253#256 + _eta_254#257 + _eta_255#258
      + _eta_256#259 + _eta_257#260 + _eta_258#261 + _eta_259#262
      + _eta_260#263 + _eta_261#264 + _eta_262#265 + _eta_263#266
      + _eta_264#267 + _eta_265#268 + _eta_266#269 + _eta_267#270
      + _eta_268#271 + _eta_269#272 + _eta_270#273 + _eta_271#274
      + _eta_272#275 + _eta_273#276 + _eta_274#277 + _eta_275#278
      + _eta_276#279 + _eta_277#280 + _eta_278#281 + _eta_279#282
      + _eta_280#283 + _eta_281#284 + _eta_282#285 + _eta_283#286
      + _eta_284#287 + _eta_285#288 + _eta_286#289 + _eta_287#290
      + _eta_288#291 + _eta_289#292 + _eta_290#293 + _eta_291#294
      + _eta_292#295 + _eta_293#296 + _eta_294#297 + _eta_295#298
      + _eta_296#299 + _eta_297#300 + _eta_298#301 + _eta_299#302
      + _eta_300#303 + _eta_301#304 + _eta_302#305 + _eta_303#306
      + _eta_304#307 + _eta_305#308 + _eta_306#309 + _eta_307#310
      + _eta_308#311 + _eta_309#312 + _eta_310#313 + _eta_311#314
      + _eta_312#315 + _eta_313#316 + _eta_314#317 + _eta_315#318
      + _eta_316#319 + _eta_317#320 + _eta_318#321 + _eta_319#322
      + _eta_320#323 + _eta_321#324 + _eta_322#325 + _eta_323#326
      + _eta_324#327 + _eta_325#328 + _eta_326#329 + _eta_327#330
      + _eta_328#331 + _eta_329#332 + _eta_330#333 + _eta_331#334
      + _eta_332#335 + _eta_333#336 + _eta_334#337 + _eta_335#338
      + _eta_336#339 + _eta_337#340 + _eta_338#341 + _eta_339#342
      + _eta_340#343 + _eta_341#344 + _eta_342#345 + _eta_343#346
      + _eta_344#347 + _eta_345#348 + _eta_346#349 + _eta_347#350
      + _eta_348#351 + _eta_349#352 + _eta_350#353 + _eta_351#354
      + _eta_352#355 + _eta_353#356 + _eta_354#357 + _eta_355#358
      + _eta_356#359 + _eta_357#360 + _eta_358#361 + _eta_359#362
      + _eta_360#363 + _eta_361#364 + _eta_362#365 + _eta_363#366
      + _eta_364#367 + _eta_365#368 + _eta_366#369 + _eta_367#370
      + _eta_368#371 + _eta_369#372 + _eta_370#373 + _eta_371#374
      + _eta_372#375 + _eta_373#376 + _eta_374#377 + _eta_375#378
      + _eta_376#379 + _eta_377#380 + _eta_378#381 + _eta_379#382
      + _eta_380#383 + _eta_381#384 + _eta_382#385 + _eta_383#386
      + _eta_384#387 + _eta_385#388 + _eta_386#389 + _eta_387#390
      + _eta_388#391 + _eta_389#392 + _eta_390#393 + _eta_391#394
      + _eta_392#395 + _eta_393#396 + _eta_394#397 + _eta_395#398
      + _eta_396#399 + _eta_397#400 + _eta_398#401 + _eta_399#402
      + _eta_400#403 + _eta_401#404 + _eta_402#405 + _eta_403#406
      + _eta_404#407 + _eta_405#408 + _eta_406#409 + _eta_407#410
      + _eta_408#411 + _eta_409#412 + _eta_410#413 + _eta_411#414
      + _eta_412#415 + _eta_413#416 + _eta_414#417 + _eta_415#418
      + _eta_416#419 + _eta_417#420 + _eta_418#421 + _eta_419#422
      + _eta_420#423 + _eta_421#424 + _eta_422#425 + _eta_423#426
      + _eta_424#427 + _eta_425#428 + _eta_426#429 + _eta_427#430
      + _eta_428#431 + _eta_429#432 + _eta_430#433 + _eta_431#434
      + _eta_432#435 + _eta_433#436 + _eta_434#437 + _eta_435#438
      + _eta_436#439 + _eta_437#440 + _eta_438#441 + _eta_439#442
      + _eta_440#443 + _eta_441#444 + _eta_442#445 + _eta_443#446
      + _eta_444#447 + _eta_445#448 + _eta_446#449 + _eta_447#450
      + _eta_448#451 + _eta_449#452 + _eta_450#453 + _eta_451#454
      + _eta_452#455 + _eta_453#456 + _eta_454#457 + _eta_455#458
      + _eta_456#459 + _eta_457#460 + _eta_458#461 + _eta_459#462
      + _eta_460#463 + _eta_461#464 + _eta_462#465 + _eta_463#466
      + _eta_464#467 + _eta_465#468 + _eta_466#469 + _eta_467#470
      + _eta_468#471 + _eta_469#472 + _eta_470#473 + _eta_471#474
      + _eta_472#475 + _eta_473#476 + _eta_474#477 + _eta_475#478
      + _eta_476#479 + _eta_477#480 + _eta_478#481 + _eta_479#482
      + _eta_480#483 + _eta_481#484 + _eta_482#485 + _eta_483#486
      + _eta_484#487 + _eta_485#488 + _eta_486#489 + _eta_487#490
      + _eta_488#491 + _eta_489#492 + _eta_490#493 + _eta_491#494
      + _eta_492#495 + _eta_493#496 + _eta_494#497 + _eta_495#498
      + _eta_496#499 + _eta_497#500 + _eta_498#501 + _eta_499#502
      + _eta_500#503
Subject To
 S1C1: X1#0 + X2#1 + X3#2 + X4#3 >= 12
 S1C2: 10 X1#0 + 7 X2#1 + 16 X3#2 + 6 X4#3 <= 120
Bounds
-99999999999 <= _eta_1#4 <= 99999999999
-99999999999 <= _eta_2#5 <= 99999999999
-99999999999 <= _eta_3#6 <= 99999999999
-99999999999 <= _eta_4#7 <= 99999999999
-99999999999 <= _eta_5#8 <= 99999999999
-99999999999 <= _eta_6#9 <= 99999999999
-99999999999 <= _eta_7#10 <= 99999999999
-99999999999 <= _eta_8#11 <= 99999999999
-99999999999 <= _eta_9#12 <= 99999999999
-99999999999 <= _eta_10#13 <= 99999999999
-99999999999 <= _eta_11#14 <= 99999999999
-99999999999 <= _eta_12#15 <= 99999999999
-99999999999 <= _eta_13#16 <= 99999999999
-99999999999 <= _eta_14#17 <= 99999999999
-99999999999 <= _eta_15#18 <= 99999999999
-99999999999 <= _eta_16#19 <= 99999999999
-99999999999 <= _eta_17#20 <= 99999999999
-99999999999 <= _eta_18#21 <= 99999999999
-99999999999 <= _eta_19#22 <= 99999999999
-99999999999 <= _eta_20#23 <= 99999999999
-99999999999 <= _eta_21#24 <= 99999999999
-99999999999 <= _eta_22#25 <= 99999999999
-99999999999 <= _eta_23#26 <= 99999999999
-99999999999 <= _eta_24#27 <= 99999999999
-99999999999 <= _eta_25#28 <= 99999999999
-99999999999 <= _eta_26#29 <= 99999999999
-99999999999 <= _eta_27#30 <= 99999999999
-99999999999 <= _eta_28#31 <= 99999999999
-99999999999 <= _eta_29#32 <= 99999999999
-99999999999 <= _eta_30#33 <= 99999999999
-99999999999 <= _eta_31#34 <= 99999999999
-99999999999 <= _eta_32#35 <= 99999999999
-99999999999 <= _eta_33#36 <= 99999999999
-99999999999 <= _eta_34#37 <= 99999999999
-99999999999 <= _eta_35#38 <= 99999999999
-99999999999 <= _eta_36#39 <= 99999999999
-99999999999 <= _eta_37#40 <= 99999999999
-99999999999 <= _eta_38#41 <= 99999999999
-99999999999 <= _eta_39#42 <= 99999999999
-99999999999 <= _eta_40#43 <= 99999999999
-99999999999 <= _eta_41#44 <= 99999999999
-99999999999 <= _eta_42#45 <= 99999999999
-99999999999 <= _eta_43#46 <= 99999999999
-99999999999 <= _eta_44#47 <= 99999999999
-99999999999 <= _eta_45#48 <= 99999999999
-99999999999 <= _eta_46#49 <= 99999999999
-99999999999 <= _eta_47#50 <= 99999999999
-99999999999 <= _eta_48#51 <= 99999999999
-99999999999 <= _eta_49#52 <= 99999999999
-99999999999 <= _eta_50#53 <= 99999999999
-99999999999 <= _eta_51#54 <= 99999999999
-99999999999 <= _eta_52#55 <= 99999999999
-99999999999 <= _eta_53#56 <= 99999999999
-99999999999 <= _eta_54#57 <= 99999999999
-99999999999 <= _eta_55#58 <= 99999999999
-99999999999 <= _eta_56#59 <= 99999999999
-99999999999 <= _eta_57#60 <= 99999999999
-99999999999 <= _eta_58#61 <= 99999999999
-99999999999 <= _eta_59#62 <= 99999999999
-99999999999 <= _eta_60#63 <= 99999999999
-99999999999 <= _eta_61#64 <= 99999999999
-99999999999 <= _eta_62#65 <= 99999999999
-99999999999 <= _eta_63#66 <= 99999999999
-99999999999 <= _eta_64#67 <= 99999999999
-99999999999 <= _eta_65#68 <= 99999999999
-99999999999 <= _eta_66#69 <= 99999999999
-99999999999 <= _eta_67#70 <= 99999999999
-99999999999 <= _eta_68#71 <= 99999999999
-99999999999 <= _eta_69#72 <= 99999999999
-99999999999 <= _eta_70#73 <= 99999999999
-99999999999 <= _eta_71#74 <= 99999999999
-99999999999 <= _eta_72#75 <= 99999999999
-99999999999 <= _eta_73#76 <= 99999999999
-99999999999 <= _eta_74#77 <= 99999999999
-99999999999 <= _eta_75#78 <= 99999999999
-99999999999 <= _eta_76#79 <= 99999999999
-99999999999 <= _eta_77#80 <= 99999999999
-99999999999 <= _eta_78#81 <= 99999999999
-99999999999 <= _eta_79#82 <= 99999999999
-99999999999 <= _eta_80#83 <= 99999999999
-99999999999 <= _eta_81#84 <= 99999999999
-99999999999 <= _eta_82#85 <= 99999999999
-99999999999 <= _eta_83#86 <= 99999999999
-99999999999 <= _eta_84#87 <= 99999999999
-99999999999 <= _eta_85#88 <= 99999999999
-99999999999 <= _eta_86#89 <= 99999999999
-99999999999 <= _eta_87#90 <= 99999999999
-99999999999 <= _eta_88#91 <= 99999999999
-99999999999 <= _eta_89#92 <= 99999999999
-99999999999 <= _eta_90#93 <= 99999999999
-99999999999 <= _eta_91#94 <= 99999999999
-99999999999 <= _eta_92#95 <= 99999999999
-99999999999 <= _eta_93#96 <= 99999999999
-99999999999 <= _eta_94#97 <= 99999999999
-99999999999 <= _eta_95#98 <= 99999999999
-99999999999 <= _eta_96#99 <= 99999999999
-99999999999 <= _eta_97#100 <= 99999999999
-99999999999 <= _eta_98#101 <= 99999999999
-99999999999 <= _eta_99#102 <= 99999999999
-99999999999 <= _eta_100#103 <= 99999999999
-99999999999 <= _eta_101#104 <= 99999999999
-99999999999 <= _eta_102#105 <= 99999999999
-99999999999 <= _eta_103#106 <= 99999999999
-99999999999 <= _eta_104#107 <= 99999999999
-99999999999 <= _eta_105#108 <= 99999999999
-99999999999 <= _eta_106#109 <= 99999999999
-99999999999 <= _eta_107#110 <= 99999999999
-99999999999 <= _eta_108#111 <= 99999999999
-99999999999 <= _eta_109#112 <= 99999999999
-99999999999 <= _eta_110#113 <= 99999999999
-99999999999 <= _eta_111#114 <= 99999999999
-99999999999 <= _eta_112#115 <= 99999999999
-99999999999 <= _eta_113#116 <= 99999999999
-99999999999 <= _eta_114#117 <= 99999999999
-99999999999 <= _eta_115#118 <= 99999999999
-99999999999 <= _eta_116#119 <= 99999999999
-99999999999 <= _eta_117#120 <= 99999999999
-99999999999 <= _eta_118#121 <= 99999999999
-99999999999 <= _eta_119#122 <= 99999999999
-99999999999 <= _eta_120#123 <= 99999999999
-99999999999 <= _eta_121#124 <= 99999999999
-99999999999 <= _eta_122#125 <= 99999999999
-99999999999 <= _eta_123#126 <= 99999999999
-99999999999 <= _eta_124#127 <= 99999999999
-99999999999 <= _eta_125#128 <= 99999999999
-99999999999 <= _eta_126#129 <= 99999999999
-99999999999 <= _eta_127#130 <= 99999999999
-99999999999 <= _eta_128#131 <= 99999999999
-99999999999 <= _eta_129#132 <= 99999999999
-99999999999 <= _eta_130#133 <= 99999999999
-99999999999 <= _eta_131#134 <= 99999999999
-99999999999 <= _eta_132#135 <= 99999999999
-99999999999 <= _eta_133#136 <= 99999999999
-99999999999 <= _eta_134#137 <= 99999999999
-99999999999 <= _eta_135#138 <= 99999999999
-99999999999 <= _eta_136#139 <= 99999999999
-99999999999 <= _eta_137#140 <= 99999999999
-99999999999 <= _eta_138#141 <= 99999999999
-99999999999 <= _eta_139#142 <= 99999999999
-99999999999 <= _eta_140#143 <= 99999999999
-99999999999 <= _eta_141#144 <= 99999999999
-99999999999 <= _eta_142#145 <= 99999999999
-99999999999 <= _eta_143#146 <= 99999999999
-99999999999 <= _eta_144#147 <= 99999999999
-99999999999 <= _eta_145#148 <= 99999999999
-99999999999 <= _eta_146#149 <= 99999999999
-99999999999 <= _eta_147#150 <= 99999999999
-99999999999 <= _eta_148#151 <= 99999999999
-99999999999 <= _eta_149#152 <= 99999999999
-99999999999 <= _eta_150#153 <= 99999999999
-99999999999 <= _eta_151#154 <= 99999999999
-99999999999 <= _eta_152#155 <= 99999999999
-99999999999 <= _eta_153#156 <= 99999999999
-99999999999 <= _eta_154#157 <= 99999999999
-99999999999 <= _eta_155#158 <= 99999999999
-99999999999 <= _eta_156#159 <= 99999999999
-99999999999 <= _eta_157#160 <= 99999999999
-99999999999 <= _eta_158#161 <= 99999999999
-99999999999 <= _eta_159#162 <= 99999999999
-99999999999 <= _eta_160#163 <= 99999999999
-99999999999 <= _eta_161#164 <= 99999999999
-99999999999 <= _eta_162#165 <= 99999999999
-99999999999 <= _eta_163#166 <= 99999999999
-99999999999 <= _eta_164#167 <= 99999999999
-99999999999 <= _eta_165#168 <= 99999999999
-99999999999 <= _eta_166#169 <= 99999999999
-99999999999 <= _eta_167#170 <= 99999999999
-99999999999 <= _eta_168#171 <= 99999999999
-99999999999 <= _eta_169#172 <= 99999999999
-99999999999 <= _eta_170#173 <= 99999999999
-99999999999 <= _eta_171#174 <= 99999999999
-99999999999 <= _eta_172#175 <= 99999999999
-99999999999 <= _eta_173#176 <= 99999999999
-99999999999 <= _eta_174#177 <= 99999999999
-99999999999 <= _eta_175#178 <= 99999999999
-99999999999 <= _eta_176#179 <= 99999999999
-99999999999 <= _eta_177#180 <= 99999999999
-99999999999 <= _eta_178#181 <= 99999999999
-99999999999 <= _eta_179#182 <= 99999999999
-99999999999 <= _eta_180#183 <= 99999999999
-99999999999 <= _eta_181#184 <= 99999999999
-99999999999 <= _eta_182#185 <= 99999999999
-99999999999 <= _eta_183#186 <= 99999999999
-99999999999 <= _eta_184#187 <= 99999999999
-99999999999 <= _eta_185#188 <= 99999999999
-99999999999 <= _eta_186#189 <= 99999999999
-99999999999 <= _eta_187#190 <= 99999999999
-99999999999 <= _eta_188#191 <= 99999999999
-99999999999 <= _eta_189#192 <= 99999999999
-99999999999 <= _eta_190#193 <= 99999999999
-99999999999 <= _eta_191#194 <= 99999999999
-99999999999 <= _eta_192#195 <= 99999999999
-99999999999 <= _eta_193#196 <= 99999999999
-99999999999 <= _eta_194#197 <= 99999999999
-99999999999 <= _eta_195#198 <= 99999999999
-99999999999 <= _eta_196#199 <= 99999999999
-99999999999 <= _eta_197#200 <= 99999999999
-99999999999 <= _eta_198#201 <= 99999999999
-99999999999 <= _eta_199#202 <= 99999999999
-99999999999 <= _eta_200#203 <= 99999999999
-99999999999 <= _eta_201#204 <= 99999999999
-99999999999 <= _eta_202#205 <= 99999999999
-99999999999 <= _eta_203#206 <= 99999999999
-99999999999 <= _eta_204#207 <= 99999999999
-99999999999 <= _eta_205#208 <= 99999999999
-99999999999 <= _eta_206#209 <= 99999999999
-99999999999 <= _eta_207#210 <= 99999999999
-99999999999 <= _eta_208#211 <= 99999999999
-99999999999 <= _eta_209#212 <= 99999999999
-99999999999 <= _eta_210#213 <= 99999999999
-99999999999 <= _eta_211#214 <= 99999999999
-99999999999 <= _eta_212#215 <= 99999999999
-99999999999 <= _eta_213#216 <= 99999999999
-99999999999 <= _eta_214#217 <= 99999999999
-99999999999 <= _eta_215#218 <= 99999999999
-99999999999 <= _eta_216#219 <= 99999999999
-99999999999 <= _eta_217#220 <= 99999999999
-99999999999 <= _eta_218#221 <= 99999999999
-99999999999 <= _eta_219#222 <= 99999999999
-99999999999 <= _eta_220#223 <= 99999999999
-99999999999 <= _eta_221#224 <= 99999999999
-99999999999 <= _eta_222#225 <= 99999999999
-99999999999 <= _eta_223#226 <= 99999999999
-99999999999 <= _eta_224#227 <= 99999999999
-99999999999 <= _eta_225#228 <= 99999999999
-99999999999 <= _eta_226#229 <= 99999999999
-99999999999 <= _eta_227#230 <= 99999999999
-99999999999 <= _eta_228#231 <= 99999999999
-99999999999 <= _eta_229#232 <= 99999999999
-99999999999 <= _eta_230#233 <= 99999999999
-99999999999 <= _eta_231#234 <= 99999999999
-99999999999 <= _eta_232#235 <= 99999999999
-99999999999 <= _eta_233#236 <= 99999999999
-99999999999 <= _eta_234#237 <= 99999999999
-99999999999 <= _eta_235#238 <= 99999999999
-99999999999 <= _eta_236#239 <= 99999999999
-99999999999 <= _eta_237#240 <= 99999999999
-99999999999 <= _eta_238#241 <= 99999999999
-99999999999 <= _eta_239#242 <= 99999999999
-99999999999 <= _eta_240#243 <= 99999999999
-99999999999 <= _eta_241#244 <= 99999999999
-99999999999 <= _eta_242#245 <= 99999999999
-99999999999 <= _eta_243#246 <= 99999999999
-99999999999 <= _eta_244#247 <= 99999999999
-99999999999 <= _eta_245#248 <= 99999999999
-99999999999 <= _eta_246#249 <= 99999999999
-99999999999 <= _eta_247#250 <= 99999999999
-99999999999 <= _eta_248#251 <= 99999999999
-99999999999 <= _eta_249#252 <= 99999999999
-99999999999 <= _eta_250#253 <= 99999999999
-99999999999 <= _eta_251#254 <= 99999999999
-99999999999 <= _eta_252#255 <= 99999999999
-99999999999 <= _eta_253#256 <= 99999999999
-99999999999 <= _eta_254#257 <= 99999999999
-99999999999 <= _eta_255#258 <= 99999999999
-99999999999 <= _eta_256#259 <= 99999999999
-99999999999 <= _eta_257#260 <= 99999999999
-99999999999 <= _eta_258#261 <= 99999999999
-99999999999 <= _eta_259#262 <= 99999999999
-99999999999 <= _eta_260#263 <= 99999999999
-99999999999 <= _eta_261#264 <= 99999999999
-99999999999 <= _eta_262#265 <= 99999999999
-99999999999 <= _eta_263#266 <= 99999999999
-99999999999 <= _eta_264#267 <= 99999999999
-99999999999 <= _eta_265#268 <= 99999999999
-99999999999 <= _eta_266#269 <= 99999999999
-99999999999 <= _eta_267#270 <= 99999999999
-99999999999 <= _eta_268#271 <= 99999999999
-99999999999 <= _eta_269#272 <= 99999999999
-99999999999 <= _eta_270#273 <= 99999999999
-99999999999 <= _eta_271#274 <= 99999999999
-99999999999 <= _eta_272#275 <= 99999999999
-99999999999 <= _eta_273#276 <= 99999999999
-99999999999 <= _eta_274#277 <= 99999999999
-99999999999 <= _eta_275#278 <= 99999999999
-99999999999 <= _eta_276#279 <= 99999999999
-99999999999 <= _eta_277#280 <= 99999999999
-99999999999 <= _eta_278#281 <= 99999999999
-99999999999 <= _eta_279#282 <= 99999999999
-99999999999 <= _eta_280#283 <= 99999999999
-99999999999 <= _eta_281#284 <= 99999999999
-99999999999 <= _eta_282#285 <= 99999999999
-99999999999 <= _eta_283#286 <= 99999999999
-99999999999 <= _eta_284#287 <= 99999999999
-99999999999 <= _eta_285#288 <= 99999999999
-99999999999 <= _eta_286#289 <= 99999999999
-99999999999 <= _eta_287#290 <= 99999999999
-99999999999 <= _eta_288#291 <= 99999999999
-99999999999 <= _eta_289#292 <= 99999999999
-99999999999 <= _eta_290#293 <= 99999999999
-99999999999 <= _eta_291#294 <= 99999999999
-99999999999 <= _eta_292#295 <= 99999999999
-99999999999 <= _eta_293#296 <= 99999999999
-99999999999 <= _eta_294#297 <= 99999999999
-99999999999 <= _eta_295#298 <= 99999999999
-99999999999 <= _eta_296#299 <= 99999999999
-99999999999 <= _eta_297#300 <= 99999999999
-99999999999 <= _eta_298#301 <= 99999999999
-99999999999 <= _eta_299#302 <= 99999999999
-99999999999 <= _eta_300#303 <= 99999999999
-99999999999 <= _eta_301#304 <= 99999999999
-99999999999 <= _eta_302#305 <= 99999999999
-99999999999 <= _eta_303#306 <= 99999999999
-99999999999 <= _eta_304#307 <= 99999999999
-99999999999 <= _eta_305#308 <= 99999999999
-99999999999 <= _eta_306#309 <= 99999999999
-99999999999 <= _eta_307#310 <= 99999999999
-99999999999 <= _eta_308#311 <= 99999999999
-99999999999 <= _eta_309#312 <= 99999999999
-99999999999 <= _eta_310#313 <= 99999999999
-99999999999 <= _eta_311#314 <= 99999999999
-99999999999 <= _eta_312#315 <= 99999999999
-99999999999 <= _eta_313#316 <= 99999999999
-99999999999 <= _eta_314#317 <= 99999999999
-99999999999 <= _eta_315#318 <= 99999999999
-99999999999 <= _eta_316#319 <= 99999999999
-99999999999 <= _eta_317#320 <= 99999999999
-99999999999 <= _eta_318#321 <= 99999999999
-99999999999 <= _eta_319#322 <= 99999999999
-99999999999 <= _eta_320#323 <= 99999999999
-99999999999 <= _eta_321#324 <= 99999999999
-99999999999 <= _eta_322#325 <= 99999999999
-99999999999 <= _eta_323#326 <= 99999999999
-99999999999 <= _eta_324#327 <= 99999999999
-99999999999 <= _eta_325#328 <= 99999999999
-99999999999 <= _eta_326#329 <= 99999999999
-99999999999 <= _eta_327#330 <= 99999999999
-99999999999 <= _eta_328#331 <= 99999999999
-99999999999 <= _eta_329#332 <= 99999999999
-99999999999 <= _eta_330#333 <= 99999999999
-99999999999 <= _eta_331#334 <= 99999999999
-99999999999 <= _eta_332#335 <= 99999999999
-99999999999 <= _eta_333#336 <= 99999999999
-99999999999 <= _eta_334#337 <= 99999999999
-99999999999 <= _eta_335#338 <= 99999999999
-99999999999 <= _eta_336#339 <= 99999999999
-99999999999 <= _eta_337#340 <= 99999999999
-99999999999 <= _eta_338#341 <= 99999999999
-99999999999 <= _eta_339#342 <= 99999999999
-99999999999 <= _eta_340#343 <= 99999999999
-99999999999 <= _eta_341#344 <= 99999999999
-99999999999 <= _eta_342#345 <= 99999999999
-99999999999 <= _eta_343#346 <= 99999999999
-99999999999 <= _eta_344#347 <= 99999999999
-99999999999 <= _eta_345#348 <= 99999999999
-99999999999 <= _eta_346#349 <= 99999999999
-99999999999 <= _eta_347#350 <= 99999999999
-99999999999 <= _eta_348#351 <= 99999999999
-99999999999 <= _eta_349#352 <= 99999999999
-99999999999 <= _eta_350#353 <= 99999999999
-99999999999 <= _eta_351#354 <= 99999999999
-99999999999 <= _eta_352#355 <= 99999999999
-99999999999 <= _eta_353#356 <= 99999999999
-99999999999 <= _eta_354#357 <= 99999999999
-99999999999 <= _eta_355#358 <= 99999999999
-99999999999 <= _eta_356#359 <= 99999999999
-99999999999 <= _eta_357#360 <= 99999999999
-99999999999 <= _eta_358#361 <= 99999999999
-99999999999 <= _eta_359#362 <= 99999999999
-99999999999 <= _eta_360#363 <= 99999999999
-99999999999 <= _eta_361#364 <= 99999999999
-99999999999 <= _eta_362#365 <= 99999999999
-99999999999 <= _eta_363#366 <= 99999999999
-99999999999 <= _eta_364#367 <= 99999999999
-99999999999 <= _eta_365#368 <= 99999999999
-99999999999 <= _eta_366#369 <= 99999999999
-99999999999 <= _eta_367#370 <= 99999999999
-99999999999 <= _eta_368#371 <= 99999999999
-99999999999 <= _eta_369#372 <= 99999999999
-99999999999 <= _eta_370#373 <= 99999999999
-99999999999 <= _eta_371#374 <= 99999999999
-99999999999 <= _eta_372#375 <= 99999999999
-99999999999 <= _eta_373#376 <= 99999999999
-99999999999 <= _eta_374#377 <= 99999999999
-99999999999 <= _eta_375#378 <= 99999999999
-99999999999 <= _eta_376#379 <= 99999999999
-99999999999 <= _eta_377#380 <= 99999999999
-99999999999 <= _eta_378#381 <= 99999999999
-99999999999 <= _eta_379#382 <= 99999999999
-99999999999 <= _eta_380#383 <= 99999999999
-99999999999 <= _eta_381#384 <= 99999999999
-99999999999 <= _eta_382#385 <= 99999999999
-99999999999 <= _eta_383#386 <= 99999999999
-99999999999 <= _eta_384#387 <= 99999999999
-99999999999 <= _eta_385#388 <= 99999999999
-99999999999 <= _eta_386#389 <= 99999999999
-99999999999 <= _eta_387#390 <= 99999999999
-99999999999 <= _eta_388#391 <= 99999999999
-99999999999 <= _eta_389#392 <= 99999999999
-99999999999 <= _eta_390#393 <= 99999999999
-99999999999 <= _eta_391#394 <= 99999999999
-99999999999 <= _eta_392#395 <= 99999999999
-99999999999 <= _eta_393#396 <= 99999999999
-99999999999 <= _eta_394#397 <= 99999999999
-99999999999 <= _eta_395#398 <= 99999999999
-99999999999 <= _eta_396#399 <= 99999999999
-99999999999 <= _eta_397#400 <= 99999999999
-99999999999 <= _eta_398#401 <= 99999999999
-99999999999 <= _eta_399#402 <= 99999999999
-99999999999 <= _eta_400#403 <= 99999999999
-99999999999 <= _eta_401#404 <= 99999999999
-99999999999 <= _eta_402#405 <= 99999999999
-99999999999 <= _eta_403#406 <= 99999999999
-99999999999 <= _eta_404#407 <= 99999999999
-99999999999 <= _eta_405#408 <= 99999999999
-99999999999 <= _eta_406#409 <= 99999999999
-99999999999 <= _eta_407#410 <= 99999999999
-99999999999 <= _eta_408#411 <= 99999999999
-99999999999 <= _eta_409#412 <= 99999999999
-99999999999 <= _eta_410#413 <= 99999999999
-99999999999 <= _eta_411#414 <= 99999999999
-99999999999 <= _eta_412#415 <= 99999999999
-99999999999 <= _eta_413#416 <= 99999999999
-99999999999 <= _eta_414#417 <= 99999999999
-99999999999 <= _eta_415#418 <= 99999999999
-99999999999 <= _eta_416#419 <= 99999999999
-99999999999 <= _eta_417#420 <= 99999999999
-99999999999 <= _eta_418#421 <= 99999999999
-99999999999 <= _eta_419#422 <= 99999999999
-99999999999 <= _eta_420#423 <= 99999999999
-99999999999 <= _eta_421#424 <= 99999999999
-99999999999 <= _eta_422#425 <= 99999999999
-99999999999 <= _eta_423#426 <= 99999999999
-99999999999 <= _eta_424#427 <= 99999999999
-99999999999 <= _eta_425#428 <= 99999999999
-99999999999 <= _eta_426#429 <= 99999999999
-99999999999 <= _eta_427#430 <= 99999999999
-99999999999 <= _eta_428#431 <= 99999999999
-99999999999 <= _eta_429#432 <= 99999999999
-99999999999 <= _eta_430#433 <= 99999999999
-99999999999 <= _eta_431#434 <= 99999999999
-99999999999 <= _eta_432#435 <= 99999999999
-99999999999 <= _eta_433#436 <= 99999999999
-99999999999 <= _eta_434#437 <= 99999999999
-99999999999 <= _eta_435#438 <= 99999999999
-99999999999 <= _eta_436#439 <= 99999999999
-99999999999 <= _eta_437#440 <= 99999999999
-99999999999 <= _eta_438#441 <= 99999999999
-99999999999 <= _eta_439#442 <= 99999999999
-99999999999 <= _eta_440#443 <= 99999999999
-99999999999 <= _eta_441#444 <= 99999999999
-99999999999 <= _eta_442#445 <= 99999999999
-99999999999 <= _eta_443#446 <= 99999999999
-99999999999 <= _eta_444#447 <= 99999999999
-99999999999 <= _eta_445#448 <= 99999999999
-99999999999 <= _eta_446#449 <= 99999999999
-99999999999 <= _eta_447#450 <= 99999999999
-99999999999 <= _eta_448#451 <= 99999999999
-99999999999 <= _eta_449#452 <= 99999999999
-99999999999 <= _eta_450#453 <= 99999999999
-99999999999 <= _eta_451#454 <= 99999999999
-99999999999 <= _eta_452#455 <= 99999999999
-99999999999 <= _eta_453#456 <= 99999999999
-99999999999 <= _eta_454#457 <= 99999999999
-99999999999 <= _eta_455#458 <= 99999999999
-99999999999 <= _eta_456#459 <= 99999999999
-99999999999 <= _eta_457#460 <= 99999999999
-99999999999 <= _eta_458#461 <= 99999999999
-99999999999 <= _eta_459#462 <= 99999999999
-99999999999 <= _eta_460#463 <= 99999999999
-99999999999 <= _eta_461#464 <= 99999999999
-99999999999 <= _eta_462#465 <= 99999999999
-99999999999 <= _eta_463#466 <= 99999999999
-99999999999 <= _eta_464#467 <= 99999999999
-99999999999 <= _eta_465#468 <= 99999999999
-99999999999 <= _eta_466#469 <= 99999999999
-99999999999 <= _eta_467#470 <= 99999999999
-99999999999 <= _eta_468#471 <= 99999999999
-99999999999 <= _eta_469#472 <= 99999999999
-99999999999 <= _eta_470#473 <= 99999999999
-99999999999 <= _eta_471#474 <= 99999999999
-99999999999 <= _eta_472#475 <= 99999999999
-99999999999 <= _eta_473#476 <= 99999999999
-99999999999 <= _eta_474#477 <= 99999999999
-99999999999 <= _eta_475#478 <= 99999999999
-99999999999 <= _eta_476#479 <= 99999999999
-99999999999 <= _eta_477#480 <= 99999999999
-99999999999 <= _eta_478#481 <= 99999999999
-99999999999 <= _eta_479#482 <= 99999999999
-99999999999 <= _eta_480#483 <= 99999999999
-99999999999 <= _eta_481#484 <= 99999999999
-99999999999 <= _eta_482#485 <= 99999999999
-99999999999 <= _eta_483#486 <= 99999999999
-99999999999 <= _eta_484#487 <= 99999999999
-99999999999 <= _eta_485#488 <= 99999999999
-99999999999 <= _eta_486#489 <= 99999999999
-99999999999 <= _eta_487#490 <= 99999999999
-99999999999 <= _eta_488#491 <= 99999999999
-99999999999 <= _eta_489#492 <= 99999999999
-99999999999 <= _eta_490#493 <= 99999999999
-99999999999 <= _eta_491#494 <= 99999999999
-99999999999 <= _eta_492#495 <= 99999999999
-99999999999 <= _eta_493#496 <= 99999999999
-99999999999 <= _eta_494#497 <= 99999999999
-99999999999 <= _eta_495#498 <= 99999999999
-99999999999 <= _eta_496#499 <= 99999999999
-99999999999 <= _eta_497#500 <= 99999999999
-99999999999 <= _eta_498#501 <= 99999999999
-99999999999 <= _eta_499#502 <= 99999999999
-99999999999 <= _eta_500#503 <= 99999999999
End
